param size := 9;

param nsubsets := 3;

set ROWSUBS[1] := 1 2 3;
set ROWSUBS[2] := 4 5 6;
set ROWSUBS[3] := 7 8 9;

set COLSUBS[1] := 1 2 3;
set COLSUBS[2] := 4 5 6;
set COLSUBS[3] := 7 8 9;

param GRID:
   1 2 3 4 5 6 7 8 9 :=
1  9 0 2 0 0 0 6 0 3 
2  0 0 0 9 5 0 4 0 0 
3  7 0 0 0 0 0 0 8 0 
4  0 0 9 1 0 8 0 6 0 
5  6 0 0 0 0 0 0 0 2 
6  0 1 0 2 0 3 7 0 0 
7  0 8 0 0 0 0 0 0 6 
8  0 0 6 0 1 9 0 0 0 
9  1 0 7 0 0 0 2 0 8;
